(declare-const __cost Int)
(declare-const param2 Int)
(declare-const param0 Int)
(declare-const param1 Int)
(assert (exists
         ((k?1 Int) (|k'?2| Int) (|__cost'?3| Int) (|j'?4| Int) (j?5 Int)
            (|i'?6| Int) (K?7 Int))
         (and (<= (- param0) 0) (<= (- param1) 0) (<= (- param2) 0)
                (or (not (<= (- K?7) 0)) (= (+ |i'?6| (- K?7)) 0))
                (or (not (and (<= (- K?7) 0) (<= K?7 0)))
                      (= (+ (- j?5) |j'?4|) 0))
                (or (not (<= (+ (- K?7) 1) 0)) (= (+ |j'?4| (- param1)) 0))
                (or (not (<= (- K?7) 0))
                      (= (+ |__cost'?3| (- (* K?7 param2 param1))) 0))
                (or (not (<= (- K?7) 0)) (<= (- |__cost'?3|) 0))
                (or (and (= K?7 0) (= (+ (- |k'?2|) k?1) 0)
                           (= (+ j?5 (- |j'?4|)) 0) (= (- |i'?6|) 0)
                           (= (- |__cost'?3|) 0))
                      (and (<= (+ (- K?7) 1) 0) (<= (+ (- param0) 1) 0)
                             (<= (- (* param2 param1)) 0) (<= (- param2) 0)
                             (<= (- param1) 0) (= (+ (- |j'?4|) param1) 0)
                             (<= (+ |i'?6| (- param0)) 0)
                             (<= (+ (- |__cost'?3|) (* param2 param1)) 0)
                             (<= (+ (- (* |j'?4| param2)) (* param2 param1)) 0)
                             (<= (- (* param2 param1)) 0) (<= (- param2) 0)
                             (<= (+ (- |i'?6|) 1) 0) (<= (- |j'?4|) 0)))
                (<= (- K?7) 0) (<= (- |__cost'?3|) 0) (<= (- |i'?6|) 0)
                (<= (- param2) 0) (<= (- param1) 0) (<= (- param0) 0)
                (<= (+ (- |i'?6|) param0) 0) (= (+ __cost (- |__cost'?3|)) 0))))
(check-sat)
